SAT
-1 -100 -99 -98 97 90 -96 64 69 2 78 11 -80 43 32 39 -18 -15 -53 -94 -46 19 -76 95 -36 -50 92 -3 81 -21 -65 -33 -67 -4 59 -40 -23 57 52 -9 -24 35 79 29 8 93 -83 87 -55 82 12 -70 68 -13 -14 58 45 49 71 -28 77 -37 -88 -73 48 -16 44 -22 34 10 -47 -66 26 -27 61 20 51 -84 72 -85 -56 -86 -60 -42 31 -74 17 -30 6 -63 -89 41 75 25 -91 -54 62 -38 -7 5 0
